StringID   Type       x          y          demand     ReadyTime  DueDate    ServiceTime
D0         d              10.295    16.958      0.000      0.000     23.983      0.000
S0         f              10.295    16.958      0.000      0.000     23.983      0.000
S1         f              48.470    28.320      0.000      0.000     23.983      0.000
S2         f              35.280    91.170      0.000      0.000     23.983      0.000
C0         c              92.013    44.297      0.004     10.248     12.996      0.052
C1         c              28.026    59.126      0.004     13.386     16.415      0.052
C2         c              37.059     1.451      0.004      8.629     11.625      0.052
C3         c             101.892    95.251      0.042     17.388     18.848      0.071
C4         c              12.624    16.514      0.048     15.869     19.607      0.074

Q Vehicle fuel tank capacity /119.1600/
C Vehicle load capacity /1.1700/
r fuel consumption rate /0.4267/
g inverse refueling rate /0.0080/
v average Velocity /35.7100/
gv charging speed /124.8200/

--------------------
instance_id /227/
number of clusters /6/
working_startTime (hour) /8.00/
working_endTime (hour) /20.53/
instance_endTime (hour) /23.98/
service_time_type /cargoweight/
demand_type /20_80/
instance_type /RC/
instance x range /[0.0, 100.0]/
instance y range /[0.0, 100.0]/
cs_time_to_depot (hour)/[1.1153727090478818,2.1928028045058534]/
